100
400
279
277
275
275
275
274
273
271
271
267
267
261
261
254
252
250
249
247
246
239
237
236
235
235
233
231
228
225
224
223
221
220
214
207
206
206
206
204
202
200
193
192
192
191
191
188
182
179
179
175
171
170
168
164
162
160
158
157
152
148
144
144
144
136
135
134
128
123
120
115
115
112
108
107
105
105
102
102
97
93
91
89
88
88
83
81
77
77
76
74
70
62
60
59
55
50
49
48
46
40
